NAME          COPTPROB
OBJSENSE
  MIN
ROWS
 N  __OBJ___
 L  C93     
 L  C422    
 L  C462    
 L  C602    
 L  C844    
COLUMNS
    MARKER    'MARKER'                 'INTORG'
    x18       __OBJ___  -1
    x18       C462      1
    x18       C844      1
    x174      __OBJ___  -1
    x174      C422      1
    x174      C844      1
    x219      __OBJ___  -1
    x219      C93       1
    x219      C422      1
    x570      __OBJ___  -1
    x570      C462      1
    x570      C602      1
    x1023     __OBJ___  -1
    x1023     C93       1
    x1023     C602      1
    MARKER    'MARKER'                 'INTEND'
RHS
    RHS       __OBJ___  686
    RHS       C93       1
    RHS       C422      1
    RHS       C462      1
    RHS       C602      1
    RHS       C844      1
BOUNDS
 UP BOUND     x18       1
 UP BOUND     x174      1
 UP BOUND     x219      1
 UP BOUND     x570      1
 UP BOUND     x1023     1
ENDATA
